outputs/case_144.model.txt
serious_violation_167_2 = True
unapproved_insurance_agent_operation = False
operation_outside_license_scope = False
convicted_of_embezzlement_fraud_breach_of_trust_or_forgery = False
misappropriation_or_embezzlement_of_premiums_or_insurance_money = False
exaggerated_or_misleading_promotion_or_recruitment = False
fail_to_fill_solicitation_report_truthfully_and_completely = False
intentional_concealment_of_contract_important_info = False
improper_collection_of_money_or_goods_or_commission = False
illegal_inducement_for_improper_insurance_payment = False
unauthorized_use_of_insurance_related_advertisement = False
hold_position_in_insurance_or_association_or_registered_as_agent = False
fail_to_confirm_consumer_suitability_including_seniors = False
false_or_incomplete_business_or_financial_reports = False
induce_customer_to_terminate_contract_or_use_loan_or_deposit_to_pay_premium = False
fail_to_report_to_agent_association = False
employ_unqualified_person_for_insurance_solicitation = False
improper_inducement_of_policy_cancellation_or_transfer_or_loan = False
fail_to_cancel_license_within_deadline = False
authorize_others_to_operate_or_execute_business = False
license_used_by_others_without_own_execution = False
sell_unapproved_foreign_policy_discount_benefit_certificates = False
unauthorized_suspension_or_termination_of_business = False
fail_to_appoint_agent_after_resignation = False
improper_transfer_of_policy_documents = False
false_report_on_license_application = False
improper_coercion_or_inducement_or_extra_benefit = False
improper_commission_payment_to_non_actual_solicitor = False
other_violations_of_rules_or_laws = False
spread_false_statements_or_disrupt_financial_order = False
unapproved_insurance_business_execution = False
other_behaviors_damaging_insurance_image = False
agent_rule_49_violation_20 = False
agent_rule_49_violation_6 = False
agent_rule_49_violation_9 = False
agent_rule_49_violation_4 = False
agent_rule_49_violation_12 = False
violate_165_1_or_163_5_applied = False
violation_167_2 = False
agent_rule_49_violation_29 = False
agent_rule_49_violation_19 = False
agent_rule_49_violation_28 = False
violate_163_7 = False
agent_rule_49_violation_22 = False
agent_rule_49_violation_21 = False
agent_rule_49_violation_11 = False
agent_rule_49_violation_5 = False
agent_rule_49_violation_7 = False
agent_rule_49_violation_2 = False
agent_rule_49_violation_31 = False
agent_rule_49_violation_25 = False
agent_rule_49_any_violation = False
agent_rule_49_violation_27 = False
agent_rule_49_violation_14 = False
agent_rule_49_violation_26 = False
penalty_167_2 = True
agent_rule_49_violation_1 = False
violate_163_4_financial_or_business_rule = False
agent_rule_49_violation_8 = False
agent_rule_49_violation_10 = False
agent_rule_49_violation_15 = False
agent_rule_49_violation_17 = False
penalty = False
agent_rule_49_violation_30 = False
agent_rule_49_violation_13 = False
agent_rule_49_violation_24 = False
agent_rule_49_violation_23 = False
agent_rule_49_violation_3 = False
agent_rule_49_violation_18 = False
agent_rule_49_violation_16 = False